\Problem name: 

Minimize
OBJROW: 0.05000 x20 + 0.12000 x21 + 0.08000 x22 + 0.10000 x23
Subject To
constr(0):  2000 x0 + 3000 x1 + 4800 x2 + 6000 x3 + 7000 x4 + x20 >= 10000
constr(1):  2000 x5 + 3000 x6 + 4800 x7 + 6000 x8 + 7000 x9 + x21 >= 15000
constr(2):  2000 x10 + 3000 x11 + 4800 x12 + 6000 x13 + 7000 x14 + x22 >= 12000
constr(3):  2000 x15 + 3000 x16 + 4800 x17 + 6000 x18 + 7000 x19 + x23 >= 8000
constr(4):  x0 + x5 + x10 + x15 <= 1
constr(5):  x1 + x6 + x11 + x16 <= 1
constr(6):  x2 + x7 + x12 + x17 <= 1
constr(7):  x3 + x8 + x13 + x18 <= 1
constr(8):  x4 + x9 + x14 + x19 <= 1
Bounds
 0 <= x0 <= 1
 0 <= x1 <= 1
 0 <= x2 <= 1
 0 <= x3 <= 1
 0 <= x4 <= 1
 0 <= x5 <= 1
 0 <= x6 <= 1
 0 <= x7 <= 1
 0 <= x8 <= 1
 0 <= x9 <= 1
 0 <= x10 <= 1
 0 <= x11 <= 1
 0 <= x12 <= 1
 0 <= x13 <= 1
 0 <= x14 <= 1
 0 <= x15 <= 1
 0 <= x16 <= 1
 0 <= x17 <= 1
 0 <= x18 <= 1
 0 <= x19 <= 1
Integers
x0 x1 x2 x3 x4 x5 x6 x7 x8 x9 
x10 x11 x12 x13 x14 x15 x16 x17 x18 x19 
End
